-3.62
0.49
0.46
0.49
-0.01
-0.28
-0.12
0.06
-0.35
-0.12
-0.2
-0.03
-0.05
-0.15
-0.23
-0.25
-0.55
-0.53
-0.44
-0.49
-0.23
-0.02
-0.41
-0.15
-0.19
0.11
-0.3
-0.29
0.19
-0.24
0.08
-0.21
0.07
-0.12
0.41
0.07
0.55
0.38
-0.05
0.01
0.32
0.13
0.27
0.48
1.16
0.72
0.49
0.81
0.49
0.63
1.16
0.72
1.13
1.02
1.8
1.2
1.07
1.92
1.58
1.9
2.07
1.46
2.07
2.06
2.41
1.87
2.33
2.03
2.85
2.54
3
2.19
2.9
2.93
2.69
2.51
3.19
3.52
3.07
3.27
3.3
3.61
3.69
3.55
3.77
3.55

